NAME : GeneratedInstance
TYPE : TSP
DIMENSION : 30
EDGE_WEIGHT_TYPE : EUC_2D
NODE_COORD_SECTION
1 0.266908 98.065536
2 38.609818 67.860624
3 54.044450 19.733994
4 41.290639 69.758848
5 38.613917 9.427096
6 47.360065 10.397277
7 15.899704 3.920762
8 89.809663 6.790464
9 98.052514 41.518426
10 27.088212 28.095072
11 75.926621 14.320226
12 51.292636 31.456900
13 47.043272 30.844541
14 94.494514 30.250496
15 31.312980 3.088509
16 69.117334 40.313664
17 16.629535 95.168357
18 27.555904 32.901448
19 47.670372 25.692383
20 40.291947 49.978317
21 63.255628 20.738927
22 50.275631 0.669103
23 15.219132 93.249393
24 49.943265 65.624751
25 35.606113 83.418091
26 75.824017 25.914331
27 49.259027 24.216074
28 41.311179 61.326679
29 96.525173 99.879673
30 11.305467 76.605546
EOF
